p cnf 102 357
-4 -2 0
-4 -3 0
2 3 4 0
-5 -3 0
-5 1 0
3 -1 5 0
6 -1 0
6 -5 0
1 5 -6 0
7 -4 0
7 6 0
4 -6 -7 0
-11 9 0
-11 -10 0
-9 10 11 0
12 -8 0
12 11 0
8 -11 -12 0
13 -1 0
13 12 0
1 -12 -13 0
-14 -7 0
-14 13 0
7 -13 14 0
-1 -14 -15 0
1 14 -15 0
-1 14 15 0
1 -14 15 0
-6 -16 -17 0
6 16 -17 0
-6 16 17 0
6 -16 17 0
-17 -18 -19 0
17 18 -19 0
-17 18 19 0
17 -18 19 0
-21 18 0
-21 20 0
-18 -20 21 0
-23 21 0
-23 22 0
-21 -22 23 0
-23 24 -25 0
23 -24 -25 0
-23 -24 25 0
23 24 25 0
26 5 0
26 25 0
-5 -25 -26 0
-26 -16 -27 0
26 16 -27 0
-26 16 27 0
26 -16 27 0
-29 27 0
-29 -28 0
-27 28 29 0
30 -19 0
30 -29 0
19 29 -30 0
-31 15 0
-31 -30 0
-15 30 31 0
33 -8 0
33 -32 0
8 32 -33 0
-23 -33 -34 0
23 33 -34 0
-23 33 34 0
23 -33 34 0
35 23 0
35 21 0
-23 -21 -35 0
35 29 -36 0
-35 -29 -36 0
35 -29 36 0
-35 29 36 0
34 -36 -37 0
-34 36 -37 0
34 36 37 0
-34 -36 37 0
-9 -34 -38 0
9 34 -38 0
-9 34 38 0
9 -34 38 0
-39 13 0
-39 38 0
-13 -38 39 0
-37 39 -40 0
37 -39 -40 0
-37 -39 40 0
37 39 40 0
41 38 0
41 -4 0
-38 4 -41 0
-40 41 -42 0
40 -41 -42 0
-40 -41 42 0
40 41 42 0
-43 31 0
-43 -42 0
-31 42 43 0
-44 21 0
-44 8 0
-21 -8 44 0
-45 -5 0
-45 18 0
5 -18 45 0
28 -33 -46 0
-28 33 -46 0
28 33 46 0
-28 -33 46 0
-45 -46 -47 0
45 46 -47 0
-45 46 47 0
45 -46 47 0
48 22 0
48 24 0
-22 -24 -48 0
-49 -48 0
-49 11 0
48 -11 49 0
27 -32 -50 0
-27 32 -50 0
27 32 50 0
-27 -32 50 0
12 50 -51 0
-12 -50 -51 0
12 -50 51 0
-12 50 51 0
52 -49 0
52 -51 0
49 51 -52 0
47 -52 -53 0
-47 52 -53 0
47 52 53 0
-47 -52 53 0
44 -53 -54 0
-44 53 -54 0
44 53 54 0
-44 -53 54 0
55 10 0
55 -33 0
-10 33 -55 0
55 26 -56 0
-55 -26 -56 0
55 -26 56 0
-55 26 56 0
57 -54 0
57 56 0
54 -56 -57 0
2 24 -58 0
-2 -24 -58 0
2 -24 58 0
-2 24 58 0
-57 -58 -59 0
57 58 -59 0
-57 58 59 0
57 -58 59 0
60 -55 0
60 -4 0
55 4 -60 0
61 -21 0
61 13 0
21 -13 -61 0
-62 -35 0
-62 -61 0
35 61 62 0
14 -62 -63 0
-14 62 -63 0
14 62 63 0
-14 -62 63 0
64 49 0
64 -22 0
-49 22 -64 0
-65 -64 0
-65 -61 0
64 61 65 0
66 5 0
66 -33 0
-5 33 -66 0
49 61 -67 0
-49 -61 -67 0
49 -61 67 0
-49 61 67 0
17 -67 -68 0
-17 67 -68 0
17 67 68 0
-17 -67 68 0
-69 -66 0
-69 68 0
66 -68 69 0
-70 -65 0
-70 -69 0
65 69 70 0
-63 70 -71 0
63 -70 -71 0
-63 -70 71 0
63 70 71 0
72 -60 0
72 71 0
60 -71 -72 0
-59 72 -73 0
59 -72 -73 0
-59 -72 73 0
59 72 73 0
-74 64 0
-74 -55 0
-64 55 74 0
-75 -74 0
-75 -5 0
74 5 75 0
76 22 0
76 -9 0
-22 9 -76 0
-77 -76 0
-77 22 0
76 -22 77 0
-78 -34 0
-78 -35 0
34 35 78 0
79 -78 0
79 12 0
78 -12 -79 0
80 17 0
80 27 0
-17 -27 -80 0
-23 -80 -81 0
23 80 -81 0
-23 80 81 0
23 -80 81 0
-82 79 0
-82 81 0
-79 -81 82 0
77 -82 -83 0
-77 82 -83 0
77 82 83 0
-77 -82 83 0
85 36 0
85 26 0
-36 -26 -85 0
86 -85 0
86 21 0
85 -21 -86 0
87 84 0
87 86 0
-84 -86 -87 0
88 -16 0
88 50 0
16 -50 -88 0
-28 -49 -89 0
28 49 -89 0
-28 49 89 0
28 -49 89 0
90 -74 0
90 89 0
74 -89 -90 0
-88 90 -91 0
88 -90 -91 0
-88 -90 91 0
88 90 91 0
-92 87 0
-92 91 0
-87 -91 92 0
-93 -83 0
-93 -92 0
83 92 93 0
-94 75 0
-94 -93 0
-75 93 94 0
73 -94 -95 0
-73 94 -95 0
73 94 95 0
-73 -94 95 0
96 34 0
96 7 0
-34 -7 -96 0
19 -26 -97 0
-19 26 -97 0
19 26 97 0
-19 -26 97 0
-98 97 0
-98 -11 0
-97 11 98 0
32 98 -99 0
-32 -98 -99 0
32 -98 99 0
-32 98 99 0
-100 96 0
-100 -99 0
-96 99 100 0
-95 -100 -101 0
95 100 -101 0
-95 100 101 0
95 -100 101 0
102 43 0
102 101 0
-43 -101 -102 0
26 -3 -48 56 -28 66 0
-3 61 -70 43 0
68 -59 -7 0
18 6 53 -62 15 0
75 -20 87 -99 50 100 0
75 -68 0
68 -1 55 -16 0
31 -78 -38 -86 -91 -41 0
-35 23 -52 -72 0
-54 42 25 24 0
65 89 0
-61 100 -92 89 -33 14 0
-102 -86 98 -64 0
-27 1 13 0
-79 24 -62 0
-92 30 -38 -50 5 13 0
25 84 48 0
92 38 0
-16 -98 53 0
26 36 81 -47 71 -102 0
57 44 68 79 3 75 0
-11 86 62 54 -10 98 0
-37 -101 0
63 91 -90 -60 -41 -17 0
-14 40 0
-97 58 -102 -39 53 63 0
-62 -34 89 43 -93 -64 0
-27 -11 86 -50 0
-20 98 -37 -94 66 0
26 46 -20 -25 9 -95 0
-21 26 -16 58 95 0
7 -25 -74 -13 0
-68 -90 0
54 -82 0
88 -78 0
77 -70 23 -42 101 0
19 -6 0
-73 -71 93 -29 14 0
-54 61 0
-81 91 -42 3 95 78 0
-65 61 0
-29 -78 -26 92 0
-81 -2 8 67 0
-64 -14 0
54 70 -56 9 -73 0
67 -34 -47 -96 0
28 -19 42 0
-102 11 56 -61 -80 23 0
-88 17 92 30 34 96 0
101 -5 -17 81 0
86 -4 -71 -42 0
48 -14 -46 0
-70 38 49 -86 0
-74 58 27 -98 67 0
91 42 -37 28 0
15 4 -84 96 0
81 -82 0
58 20 -102 0
20 -76 -98 -26 0
102 0
